language ESSENCE' 1.0
letting lastdx=96
letting cage be [
[46,15,10,15,11,16,11,16,12,16,13],
[35,9,10,9,9,9,8,0,0, 0,0],
[15,14,6,0,0, 0,0, 0,0, 0,0],
[10,7,15,0,0, 0,0, 0,0, 0,0],
[16,10,1,10,2,0,0, 0,0, 0,0],
[55,12,2,12,3,11,3,11,2,11,1],
[19,9,2,9,3,9,4,0,0, 0,0],
[14,7,6,8,6,0,0, 0,0, 0,0],
[19,15,16,15,15,0,0, 0,0, 0,0],
[17,12,6,13,6,0,0, 0,0, 0,0],
[35,5,8,5,7,6,7,0,0, 0,0],
[8,11,5,11,6,0,0, 0,0, 0,0],
[11,16,6,0,0, 0,0, 0,0, 0,0],
[16,3,2,0,0, 0,0, 0,0, 0,0],
[7,15,6,0,0, 0,0, 0,0, 0,0],
[23,8,9,8,10,8,11,0,0, 0,0],
[4,11,10,0,0, 0,0, 0,0, 0,0],
[7,14,5,14,4,0,0, 0,0, 0,0],
[21,6,11,6,12,5,12,0,0, 0,0],
[32,11,11,12,11,12,10,13,10,13,11],
[44,12,14,12,13,11,13,10,13,9,13],
[14,8,15,8,14,0,0, 0,0, 0,0],
[15,7,14,7,13,0,0, 0,0, 0,0],
[5,11,7,0,0, 0,0, 0,0, 0,0],
[13,3,7,0,0, 0,0, 0,0, 0,0],
[3,6,8,0,0, 0,0, 0,0, 0,0],
[15,16,15,16,16,16,14,0,0, 0,0],
[17,5,13,6,13,0,0, 0,0, 0,0],
[45,8,7,9,7,10,7,10,8,0,0],
[21,11,16,12,16,13,16,0,0, 0,0],
[50,2,10,3,10,4,10,4,11,3,11],
[13,6,6,0,0, 0,0, 0,0, 0,0],
[26,16,10,16,9,16,8,16,7,0,0],
[31,5,11,5,10,6,10,7,10,0,0],
[10,13,5,0,0, 0,0, 0,0, 0,0],
[51,7,1,7,2,7,3,6,3,5,3],
[10,15,2,0,0, 0,0, 0,0, 0,0],
[13,11,12,0,0, 0,0, 0,0, 0,0],
[55,13,13,14,13,14,14,14,15,14,16],
[14,10,10,10,9,0,0, 0,0, 0,0],
[14,3,8,3,9,0,0, 0,0, 0,0],
[1,4,7,0,0, 0,0, 0,0, 0,0],
[36,6,1,6,2,5,2,4,2,4,3],
[15,10,15,10,16,0,0, 0,0, 0,0],
[19,4,9,4,8,0,0, 0,0, 0,0],
[28,6,14,6,15,5,15,5,16,0,0],
[25,15,13,15,14,15,12,0,0, 0,0],
[16,7,9,0,0, 0,0, 0,0, 0,0],
[26,5,4,6,4,0,0, 0,0, 0,0],
[10,8,4,7,4,7,5,0,0, 0,0],
[14,5,5,6,5,0,0, 0,0, 0,0],
[22,2,13,1,13,1,12,0,0, 0,0],
[23,8,16,9,16,9,15,0,0, 0,0],
[10,1,4,0,0, 0,0, 0,0, 0,0],
[41,8,12,8,13,7,12,7,11,0,0],
[19,4,16,3,16,3,15,0,0, 0,0],
[15,11,14,0,0, 0,0, 0,0, 0,0],
[49,16,3,16,2,16,1,15,1,0,0],
[13,2,16,0,0, 0,0, 0,0, 0,0],
[20,1,11,1,10,1,9,0,0, 0,0],
[33,1,7,2,7,2,8,1,8,2,9],
[13,5,14,0,0, 0,0, 0,0, 0,0],
[35,3,5,3,6,4,6,5,6,0,0],
[39,4,12,4,13,4,14,4,15,0,0],
[15,13,1,12,1,0,0, 0,0, 0,0],
[18,6,16,7,16,0,0, 0,0, 0,0],
[11,15,3,14,3,0,0, 0,0, 0,0],
[20,5,9,6,9,0,0, 0,0, 0,0],
[52,13,12,12,12,14,12,14,11,14,10],
[11,1,2,0,0, 0,0, 0,0, 0,0],
[49,1,1,2,1,2,2,2,3,1,3],
[15,1,5,0,0, 0,0, 0,0, 0,0],
[8,1,6,0,0, 0,0, 0,0, 0,0],
[39,1,14,1,15,1,16,2,15,0,0],
[36,2,4,3,4,3,3,4,4,4,5],
[23,2,5,2,6,0,0, 0,0, 0,0],
[38,2,11,2,12,3,12,3,13,0,0],
[5,2,14,3,14,0,0, 0,0, 0,0],
[11,3,1,4,1,5,1,0,0, 0,0],
[4,7,7,0,0, 0,0, 0,0, 0,0],
[22,7,8,8,8,0,0, 0,0, 0,0],
[12,8,1,9,1,0,0, 0,0, 0,0],
[19,8,2,8,3,0,0, 0,0, 0,0],
[27,8,5,9,5,0,0, 0,0, 0,0],
[4,9,6,0,0, 0,0, 0,0, 0,0],
[43,9,11,9,12,10,12,10,11,0,0],
[17,9,14,10,14,0,0, 0,0, 0,0],
[8,10,3,0,0, 0,0, 0,0, 0,0],
[22,10,4,10,5,10,6,0,0, 0,0],
[16,11,4,0,0, 0,0, 0,0, 0,0],
[33,11,8,11,9,12,9,13,9,0,0],
[9,11,15,0,0, 0,0, 0,0, 0,0],
[23,12,4,12,5,13,4,0,0, 0,0],
[6,12,15,0,0, 0,0, 0,0, 0,0],
[20,13,2,13,3,14,2,14,1,0,0],
[19,13,14,13,15,0,0, 0,0, 0,0],
[37,15,4,16,4,16,5,15,5,0,0]
]
